152	32	4	66	
10	10	10	10

0	0	0	0	0	0	7	1	2	3	4	5	6	10
1	0	1	1	1	10	6	16	15	13	12	9	7
2	1	3	4	0	3	6	16	15	13	12	9	7
3	5	4	2	0	5	5	18	16	12	9	8
4	2	2	0	4	9	6	18	16	15	14	12	11
5	4	5	6	0	2	4	18	16	11	9
6	0	2	6	5	2	4	18	16	15	12
7	4	8	4	0	5	3	18	14	11
8	0	7	2	4	7	5	29	23	19	17	14
9	3	5	0	1	10	4	29	28	19	14
10	0	6	5	8	10	5	28	23	22	20	16
11	3	2	4	0	7	6	29	28	27	25	23	19
12	3	2	0	2	6	4	28	25	22	19
13	6	3	0	4	4	3	29	24	17
14	0	3	2	8	5	4	27	22	21	20
15	2	0	2	6	2	4	30	22	21	20
16	5	3	5	0	10	4	29	27	25	21
17	3	7	7	0	1	4	28	27	25	22
18	5	0	5	4	2	3	29	28	27
19	6	3	6	0	2	2	30	21
20	6	3	4	0	8	2	26	25
21	2	4	0	2	2	1	24
22	0	8	4	4	1	1	26
23	9	5	0	4	3	1	24
24	2	0	3	2	1	1	31
25	7	0	3	3	4	1	31
26	3	0	6	3	10	1	31
27	0	3	6	2	10	1	31
28	3	4	0	4	4	1	31
29	0	3	2	6	2	1	31
30	0	4	3	7	5	1	31
31	0	0	0	0	0	0
